c --- [ banner ] -------------------------------------------------------------
c 
c CaDiCaL Radically Simplified CDCL SAT Solver
c Copyright (c) 2016-2021 A. Biere, M. Fleury, N. Froleyks
c 
c Version 1.5.2 a5f15211db36c3956764e18194dd5bd63bf3b5e6
c g++ (GCC) 9.3.0 -Wall -Wextra -O3 -DNDEBUG
c Fri Oct 21 01:27:37 EDT 2022 Linux gra-login3 3.10.0-1160.66.1.el7.x86_64 x86_64
c 
c --- [ limit ] --------------------------------------------------------------
c 
c setting conflict limit to 200000 conflicts (due to '200000')
c 
c --- [ parsing input ] ------------------------------------------------------
c 
c reading DIMACS file from '33.cubes376.adj'
c opening file to read '33.cubes376.adj'
c found 'p cnf 6160 1595468' header
c parsed 1595468 clauses in 19.93 seconds process time
c closing file '33.cubes376.adj'
c after reading 1457566729 bytes 1390.0 MB
c 
c --- [ options ] ------------------------------------------------------------
c 
c all options are set to their default value
c 
c --- [ solving ] ------------------------------------------------------------
c 
c time measured in process time since initialization
c 
c  seconds    reductions  redundant   irredundant
c          MB     restarts       trail       variables
c            level   conflicts       glue         remaining
c 
c * 19.93 1371  0 0   0    0    0  0% 0 1595422 2430 39%
c { 21.17 1422  0 0   0    0    0  0% 0 1595422 2430 39%
c i 24.23 1478 250 0  12  125   71 23% 8 1595422 2421 39%
c i 24.23 1478 248 0  12  126   71 23% 8 1595422 2403 39%
c i 25.50 1486 153 0  15  232  107 21% 9 1595422 2393 39%
c i 25.59 1486 152 0  17  238  112 21% 11 1595422 2392 39%
c i 25.63 1486 148 0  18  245  118 21% 11 1595422 2391 39%
c i 25.65 1486 145 0  20  251  120 22% 12 1595422 2390 39%
c i 25.67 1486 142 0  22  257  125 22% 11 1595422 2389 39%
c i 25.67 1486 142 0  22  258  125 22% 11 1595422 2388 39%
c i 25.87 1486 127 0  33  300  156 23% 14 1595422 2387 39%
c - 29.55 1382 127 1  33  300  155 23% 14 245152 2387 39%
c i 29.94 1382 125 1  37  313  165 23% 14 245152 2386 39%
c i 29.99 1382 124 1  38  316  167 23% 14 245152 2385 39%
c i 30.08 1382 125 1  40  321  171 23% 15 245152 2384 39%
c i 30.11 1382 124 1  41  323  172 23% 15 245152 2383 39%
c i 30.12 1382 123 1  41  326  174 23% 15 245152 2382 39%
c i 30.30 1382 123 1  44  334  181 23% 16 245152 2381 39%
c i 30.44 1382 124 1  48  349  195 23% 17 245152 2380 39%
c i 30.51 1382 123 1  50  355  200 23% 17 245152 2379 39%
c 
c  seconds     reductions  redundant   irredundant
c          MB      restarts       trail       variables
c             level   conflicts       glue         remaining
c 
c i 30.57 1382 121 1  54  367  210 24% 17 245152 2378 39%
c i 30.63 1382 119 1  57  380  221 24% 18 245152 2377 39%
c i 30.64 1382 118 1  58  383  223 24% 18 245152 2376 39%
c i 30.78 1382 118 1  64  409  245 24% 22 245152 2375 39%
c i 31.12 1382 116 1  69  431  264 24% 22 245152 2374 39%
c i 31.25 1382 114 1  72  441  273 24% 22 245152 2373 39%
c i 31.26 1382 113 1  73  443  274 24% 22 245152 2372 39%
c i 31.41 1382 112 1  76  456  285 24% 22 245152 2371 38%
c i 31.47 1382 111 1  78  461  289 25% 22 245152 2370 38%
c i 31.63 1382 110 1  81  475  299 24% 23 245152 2369 38%
c i 31.72 1382 100 1  86  526  322 24% 22 245152 2368 38%
c i 31.75 1382 100 1  86  529  324 24% 22 245152 2367 38%
c i 32.07 1382 104 1  91  573  354 24% 23 245152 2365 38%
c i 32.24 1382 103 1  94  585  363 24% 23 245152 2364 38%
c i 32.25 1382 103 1  95  587  364 24% 23 245152 2363 38%
c i 32.25 1382 102 1  95  588  364 24% 23 245152 2362 38%
c i 32.25 1382 102 1  96  589  364 24% 23 245152 2361 38%
c i 32.25 1382 102 1  96  590  364 24% 23 245152 2360 38%
c i 32.25 1382 102 1  96  591  364 24% 23 245152 2359 38%
c i 32.25 1382 102 1  96  592  364 24% 23 245152 2358 38%
c 
c  seconds    reductions  redundant   irredundant
c          MB     restarts       trail       variables
c            level   conflicts       glue         remaining
c 
c i 32.59 1382 99 1  96  652  407 24% 22 245152 2357 38%
c i 33.16 1382 84 1 100  834  542 25% 21 245152 2356 38%
c i 33.18 1382 84 1 100  836  543 25% 21 245152 2355 38%
c i 33.19 1382 83 1 100  846  549 25% 21 245152 2354 38%
c i 33.26 1382 78 1 100  918  603 26% 20 245152 2353 38%
c i 33.36 1382 75 1 100  960  637 26% 20 245152 2352 38%
c i 33.51 1382 75 1 102  980  655 26% 21 245152 2351 38%
c i 33.51 1382 75 1 102  982  656 26% 21 245152 2350 38%
c i 33.54 1382 75 1 104  988  661 26% 21 245152 2349 38%
c } 33.66 1382 74 1 107 1000  673 26% 21 245152 2349 38%
c [ 33.66 1382  0 1 107 1000  673  0% 0 245152 2349 38%
c i 33.67 1382 16 1 107 1003  674 28% 3 245152 2348 38%
c O 33.70 1382 12 1 107 1004  675 25% 4 245152 2348 38%
c i 33.91 1382  8 1 107 1032  679 21% 6 245152 2347 38%
c i 33.95 1382  9 1 107 1039  684 23% 7 245152 2346 38%
c i 33.96 1382  9 1 107 1042  686 23% 7 245152 2345 38%
c i 34.10 1382 12 1 107 1065  707 27% 9 245152 2344 38%
c i 34.11 1382 12 1 107 1067  708 27% 8 245152 2343 38%
c i 34.11 1382 12 1 107 1073  713 27% 8 245152 2342 38%
c i 34.16 1382 12 1 107 1085  723 28% 9 245152 2341 38%
c 
c  seconds    reductions  redundant  irredundant
c          MB     restarts       trail      variables
c            level   conflicts       glue        remaining
c 
c i 34.17 1382 12 1 107 1095  730 28% 9 245152 2340 38%
c i 34.17 1382 12 1 107 1101  733 28% 10 245152 2339 38%
c - 34.73 1484 12 2 107 1133  703 29% 10 245014 2339 38%
c i 34.74 1484 12 2 107 1134  703 29% 10 245014 2338 38%
c i 35.21 1484 19 2 107 1727 1136 31% 17 245014 2337 38%
c i 35.58 1484 23 2 108 2269 1512 31% 19 245014 2336 38%
c i 35.63 1484 23 2 108 2321 1552 31% 19 245014 2335 38%
c - 36.00 1483 23 3 108 2385 1265 31% 19 245002 2335 38%
c i 36.37 1483 23 3 108 2442 1310 49% 19 245002 2334 38%
c ] 36.66 1483 23 3 108 3002 1728 53% 20 245002 2334 38%
c { 36.66 1483 74 3 108 3002 1728 68% 21 245002 2334 38%
c F 36.75 1483 74 3 109 3005 1731 68% 21 245002 2334 38%
c i 37.05 1483 70 3 111 3082 1789 66% 20 245002 2333 38%
c i 37.05 1483 70 3 111 3084 1790 66% 20 245002 2332 38%
c i 37.14 1483 67 3 111 3197 1882 64% 20 245002 2331 38%
c i 37.19 1483 62 3 111 3319 1966 62% 19 245002 2330 38%
c i 37.33 1483 56 3 111 3570 2143 60% 19 245002 2329 38%
c i 37.59 1483 53 3 125 3799 2292 58% 19 245002 2328 38%
c - 38.50 1383 50 4 145 4052 1766 55% 19 244984 2328 38%
c i 39.11 1383 50 4 166 4215 1893 54% 20 244984 2327 38%
c 
c  seconds    reductions  redundant   irredundant
c          MB     restarts       trail       variables
c            level   conflicts       glue         remaining
c 
c i 39.11 1383 50 4 166 4216 1893 54% 20 244984 2326 38%
c i 39.14 1383 50 4 168 4220 1896 54% 20 244984 2325 38%
c i 39.32 1383 50 4 172 4237 1912 54% 19 244984 2324 38%
c i 42.19 1383 50 4 274 4842 2379 51% 21 244984 2323 38%
c i 42.20 1383 50 4 274 4850 2386 51% 21 244984 2322 38%
c i 42.47 1383 50 4 274 4927 2445 51% 21 244984 2321 38%
c d 43.71 1383 52 4 294 5003 2498 50% 21 244415 2310 38%
c 2 43.78 1383 52 4 294 5003 3705 50% 21 244386 2296 37%
c p 48.86 1383 52 4 294 5003 6512 50% 21 244386 2237 36%
c d 49.25 1383 52 4 294 5003 6397 50% 21 234175 2231 36%
c # 51.92 1383 48 4 363 6006 7175 49% 22 234175 2231 36%
c - 53.34 1385 48 5 390 6135 2578 49% 22 234175 2231 36%
c } 53.63 1385 43 5 390 7004 3188 49% 21 234175 2231 36%
c [ 53.63 1385 23 5 390 7004 3188 53% 20 234175 2231 36%
c ] 53.75 1385 23 5 391 7530 3518 52% 19 234175 2231 36%
c 1 53.75 1385 23 5 391 7530 3518 52% 19 234175 2231 36%
c 
c --- [ writing output ] -----------------------------------------------------
c 
c writing simplified CNF to DIMACS file 'simp/33.cubes376.adj.simp1'
c * 53.75 1385 23 5 391 7530 3518 52% 19 234175 2231 36%
c opening file to write 'simp/33.cubes376.adj.simp1'
c writing 'p cnf 6160 234175' header
c closing file 'simp/33.cubes376.adj.simp1'
c after writing 100792917 bytes 96.1 MB
c wrote 234175 clauses in 0.82 seconds process time
c 
c --- [ writing extension ] --------------------------------------------------
c 
c writing extension stack to 'simp/33.cubes376.adj.ext1'
c opening file to write 'simp/33.cubes376.adj.ext1'
c closing file 'simp/33.cubes376.adj.ext1'
c after writing 12041 bytes 0.0 MB
c wrote 802 witnesses in 0.00 seconds process time
c 
c --- [ result ] -------------------------------------------------------------
c 
s SATISFIABLE
c 
c --- [ run-time profiling ] -------------------------------------------------
c 
c process time taken by individual solving procedures
c (percentage relative to process time for solving)
c 
c        27.85   82.33% search
c        23.48   69.43% unstable
c        19.93   58.91% parse
c         5.98   17.67% simplify
c         5.08   15.01% probe
c         3.12    9.24% stable
c         1.24    3.66% lucky
c         0.05    0.14% ternary
c   =================================
c        33.83   61.99% solve
c 
c last line shows process time for solving
c (percentage relative to total process time)
c 
c --- [ statistics ] ---------------------------------------------------------
c 
c chronological:              1871        24.85 %  of conflicts
c conflicts:                  7530       222.61    per second
c decisions:                 39674      1172.89    per second
c fixed:                       768        12.47 %  of all variables
c learned:                    7325        97.28 %  per conflict
c learned_lits:            1261685       100.00 %  learned literals
c minimized:                     0         0.00 %  learned literals
c shrunken:                 684999        54.29 %  learned literals
c minishrunken:             139951        11.09 %  learned literals
c propagations:            1329482         0.04 M  per second
c reduced:                    2054        27.28 %  per conflict
c rephased:                      3      2510.00    interval
c restarts:                    391        19.26    interval
c stabilizing:                   2        33.57 %  of conflicts
c substituted:                  17         0.28 %  of all variables
c subsumed:                   1828         0.05 %  of all clauses
c ternary:                    1207         0.55 %  of resolved
c weakened:                     34         2.00    average size
c 
c seconds are measured in process time for solving
c 
c --- [ resources ] ----------------------------------------------------------
c 
c total process time since initialization:        54.57    seconds
c total real time since initialization:           56.35    seconds
c maximum resident set size of process:         1584.73    MB
c 
c --- [ shutting down ] ------------------------------------------------------
c 
c exit 10
WARNING! DIMACS header mismatch: wrong number of variables.
============================[ Problem Statistics ]=============================
|                                                                             |
|  Number of variables:          6120                                         |
|  Number of clauses:          234179                                         |
|  Parse time:                   1.36 s                                       |
|  Simplification time:          0.03 s                                       |
|                                                                             |
============================[ Search Statistics ]====================================================
| Conflicts |          ORIGINAL         |          LEARNT          | Num Sols |      SUBGRAPHS      |
|           |    Vars  Clauses Literals |    Limit  Clauses Lit/Cl |          | Canonical Noncanon. |
=====================================================================================================
|       145 |    6031   234224 22183146 |     2000      145     35 |        0 |        31        45 |
|       327 |    6031   234256 22183796 |     2000      327     44 |        0 |        47        77 |
|       724 |    6031   234428 22186941 |     2000      724     47 |        0 |       105       249 |
|      1084 |    6031   234451 22187534 |     2000     1084     78 |        0 |       119       272 |
|      1638 |    6031   234499 22188979 |     2000     1638     86 |        0 |       147       320 |
|      2838 |    6031   234940 22197131 |     3600     1838     39 |        0 |       320       761 |
|      4413 |    6031   235376 22204265 |     3600     3413     56 |        0 |       411      1197 |
|      6230 |    6031   235485 22206542 |     5003     3433     61 |        0 |       452      1306 |
|      8951 |    6031   235644 22210408 |     6304     3655     51 |        0 |       525      1465 |
|     13112 |    6031   235961 22217219 |     7554     4666     49 |        0 |       738      1782 |
|     18985 |    6031   236068 22219509 |     8781     6766     61 |        0 |       804      1889 |
|     27898 |    6031   236332 22225034 |    11208     6306     53 |        0 |       966      2153 |
|     41687 |    6031   237147 22239488 |    13605     8292     55 |        0 |      1247      2968 |
|     61969 |    6031   237968 22258458 |    16009    14378     73 |        0 |      1583      3789 |
|     91945 |    6031   238752 22273368 |    19616    18561     78 |        0 |      1920      4573 |
|    136916 |    6031   239934 22296618 |    24413    20729     68 |        0 |      2374      5755 |
|    203561 |    6031   240895 22313829 |    30406    20367     65 |        0 |      2800      6716 |
|    303937 |    6031   242745 22347521 |    37620    20557     58 |        0 |      3668      8566 |
|    458719 |    6031   249738 22462223 |    46008    31127     61 |        0 |      6205     15559 |
|    689363 |    6031   258699 22607943 |    56811    33174     49 |        0 |      9111     24520 |
|   1029647 |    6031   266458 22748532 |    68815    62462     75 |        0 |     11931     32279 |
|   1544975 |    6031   282998 23024596 |    84430    83805     75 |        0 |     18373     48819 |
|   2336605 |    5865   228937 18591595 |   103533    75138     49 |        0 |     31272     92267 |
=====================================================================================================
Number of solutions   : 0
Canonical subgraphs   : 31321          (38 /sec)
          order  3    : 1              (inf /sec)
          order  4    : 1              (inf /sec)
          order  5    : 1              (inf /sec)
          order  6    : 1              (inf /sec)
          order  7    : 2              (10471 /sec)
          order  8    : 4              (2082 /sec)
          order  9    : 11             (473 /sec)
          order 10    : 53             (169 /sec)
          order 11    : 282            (61 /sec)
          order 12    : 1026           (49 /sec)
          order 13    : 1608           (78 /sec)
          order 14    : 4854           (53 /sec)
          order 15    : 10416          (38 /sec)
          order 16    : 8215           (36 /sec)
          order 17    : 2703           (27 /sec)
          order 18    : 1474           (25 /sec)
          order 19    : 501            (24 /sec)
          order 20    : 99             (27 /sec)
          order 21    : 69             (27 /sec)
          order 22    : 0              (-nan /sec)
Noncanonical subgraphs: 92628          (431 /sec)
          order  3    : 0              (-nan /sec)
          order  4    : 0              (-nan /sec)
          order  5    : 0              (-nan /sec)
          order  6    : 0              (-nan /sec)
          order  7    : 0              (-nan /sec)
          order  8    : 0              (-nan /sec)
          order  9    : 0              (-nan /sec)
          order 10    : 0              (-nan /sec)
          order 11    : 0              (-nan /sec)
          order 12    : 0              (-nan /sec)
          order 13    : 16444          (2138 /sec)
          order 14    : 11734          (2782 /sec)
          order 15    : 18850          (1177 /sec)
          order 16    : 43246          (267 /sec)
          order 17    : 2276           (103 /sec)
          order 18    : 2              (22472 /sec)
          order 19    : 2              (3839 /sec)
          order 20    : 1              (2755 /sec)
          order 21    : 0              (-nan /sec)
Canonicity checking   : 823.798 s
Noncanonicity checking: 214.759 s
Total canonicity time : 1038.56 s
database reductions   : 85
restarts              : 4095
conflicts             : 2345975        (1076 /sec)
decisions             : 3026889        (0.00 % random) (1389 /sec)
propagations          : 279157025      (128094 /sec)
conflict literals     : 254011360      (55.42 % deleted)
actual reward         : 0.113435
Memory used           : 379.00 MB
CPU time              : 2179.32 s

UNSATISFIABLE
